c ---- [ banner ] ------------------------------------------------------------
c
c Kissat SAT Solver
c 
c Copyright (c) 2021-2024 Armin Biere University of Freiburg
c Copyright (c) 2019-2021 Armin Biere Johannes Kepler University Linz
c 
c Version 4.0.1 43f02cf3e992cb44653b35e5cb26f93281552ae0
c gcc (Ubuntu 13.2.0-23ubuntu4) 13.2.0 -W -Wall -O3 -DNDEBUG
c Thu Sep 12 12:27:46 CEST 2024 Linux abryzen9 6.8.0-41-generic x86_64
c
c ---- [ parsing ] -----------------------------------------------------------
c
c opened and reading DIMACS file:
c
c   /data/artifact/AMulet2.0_artifact/exp4/cnf_resyn3_64/64_64_U_SP_CWT_RC_GenMul_resyn3.cnf
c
c parsed 'p cnf 35634 141694' header
c closing input after reading 2768923 bytes (3 MB)
c finished parsing after 0.04 seconds
c
c ---- [ options ] -----------------------------------------------------------
c
c --stable=0                       (different from default '1')
c
c ---- [ solving ] -----------------------------------------------------------
c
c  seconds switched rate     size/glue tier1  binary           remaining
c         MB reductions conflicts size  tier2     irredundant
c          level restarts redundant glue  trail           variables
c
c *  0.04 10 0 0 0  0 0   0   0 0.0 0 0 0 0 0% 34350 107342 35631 100%
c (  0.07 13 0 0 0  0 0   0   0 0.0 0 0 0 0 0% 34350 107342 35631 100%
c .  0.08 13 0 0 0  0 0   0   0 0.0 0 0 0 0 0% 34346 107342 35631 100%
c c  0.20 21 0 0 0  0 0   0   0 0.0 0 0 0 0 0% 40638 96751 32513 91%
c d  0.21 21 0 0 0  0 0   0   0 0.0 0 0 0 0 0% 34402 96751 32513 91%
c =  0.28 21 0 0 0  0 0   0   0 0.0 0 0 0 0 0% 34292 96751 31944 90%
c d  0.29 21 0 0 0  0 0   0   0 0.0 0 0 0 0 0% 33154 96751 31944 90%
c f  0.41 19 0 0 0  0 0   0   0 0.0 0 0 0 0 0% 34267 93585 33508 94%
c e  0.60 28 0 0 0  0 0   0   0 0.0 0 0 0 0 0% 22852 100750 24393 68%
c )  0.60 28 0 0 0  0 0   0   0 0.0 0 0 0 0 0% 22852 100750 24393 68%
c {  0.63 28 0 0 0  0 0   0   0 0.0 0 0 2 6 0% 22852 100750 24393 68%
c -  0.96 30 175 0 1 255 43 1001 703 4.2 20 5 3 7 18% 22976 100717 24393 68%
c -  1.20 30 219 0 2 380 40 2001 1490 3.7 18 5 3 7 22% 23016 100712 24393 68%
c c  1.36 24 256 0 2 410 37 2504 1918 3.5 17 5 3 7 22% 23540 100297 23988 67%
c d  1.38 24 256 0 2 410 37 2504 1916 3.5 17 5 3 7 22% 22730 100297 23988 67%
c u  1.40 24 256 0 2 410 37 2504 1475 3.5 17 5 3 7 22% 21532 100297 23988 67%
c v  1.42 24 256 0 2 410 37 2504 1336 3.5 17 5 3 7 22% 21532 100297 23988 67%
c w  1.45 24 256 0 2 410 37 2504 1335 3.5 17 5 3 7 22% 21532 100297 23988 67%
c x  1.47 24 256 0 2 410 37 2504 1335 3.5 17 5 3 7 22% 21727 99891 23988 67%
c =  1.56 26 256 0 2 410 37 2504 1335 3.5 17 5 3 7 22% 22617 99891 23543 66%
c
c  seconds   switched   rate       size/glue tier1    binary          remaining
c         MB  reductions conflicts       size  tier2      irredundant
c           level restarts    redundant    glue   trail          variables
c
c d  1.57 26 256 0 2 410 37 2504 1331 3.5 17 5 3 7 22% 21725 99891 23542 66%
c t  1.58 26 256 0 2 410 37 2504 1331 3.5 17 5 3 7 22% 21723 99891 23542 66%
c f  1.62 26 256 0 2 410 37 2504 1331 3.5 17 5 3 7 22% 22121 98905 23989 67%
c u  1.72 26 256 0 2 410 37 2504 1235 3.5 17 5 3 7 22% 22129 98905 23989 67%
c v  1.74 26 256 0 2 410 37 2504 1202 3.5 17 5 3 7 22% 22130 98905 23989 67%
c w  1.77 26 256 0 2 410 37 2504 1186 3.5 17 5 3 7 22% 22131 98905 23989 67%
c x  1.79 26 256 0 2 410 37 2504 1186 3.5 17 5 3 7 22% 22133 98720 23989 67%
c =  1.88 26 256 0 2 410 37 2504 1186 3.5 17 5 3 7 22% 23167 98720 23472 66%
c d  1.89 26 256 0 2 410 37 2504 1183 3.5 17 5 3 7 22% 22096 98720 23472 66%
c t  1.91 26 256 0 2 410 37 2504 1183 3.5 17 5 3 7 22% 22092 98720 23472 66%
c f  1.95 26 256 0 2 410 37 2504 1183 3.5 17 5 3 7 22% 22442 97817 23901 67%
c -  2.15 26 290 0 3 530 37 3415 1757 3.2 15 5 3 8 25% 22487 97812 23901 67%
c -  2.50 26 289 0 4 682 34 5147 2934 3.1 15 5 3 8 25% 22589 97806 23901 67%
c -  3.14 26 276 0 5 1023 35 7147 4194 3.0 15 5 3 8 27% 22664 97803 23901 67%
c d  3.28 26 282 0 5 1077 35 7711 4694 3.0 15 5 3 8 27% 22667 97801 23891 67%
c u  3.33 26 282 0 5 1077 35 7711 3593 3.0 15 5 3 8 27% 22673 97801 23891 67%
c v  3.37 26 282 0 5 1077 35 7711 3286 3.0 15 5 3 8 27% 22674 97801 23891 67%
c w  3.40 26 282 0 5 1077 35 7711 3282 3.0 15 5 3 8 27% 22674 97801 23891 67%
c x  3.43 26 282 0 5 1077 35 7711 3282 3.0 15 5 3 8 27% 22674 97452 23891 67%
c =  3.59 26 282 0 5 1077 35 7711 3282 3.0 15 5 3 8 27% 23846 97452 23305 65%
c
c  seconds   switched    rate       size/glue tier1    binary          remaining
c         MB  reductions  conflicts       size  tier2      irredundant
c           level  restarts    redundant    glue   trail          variables
c
c d  3.60 26 282 0 5 1077 35 7711 3274 3.0 15 5 3 8 27% 22314 97452 23305 65%
c t  3.62 26 282 0 5 1077 35 7711 3274 3.0 15 5 3 8 27% 22290 97452 23305 65%
c f  3.68 26 282 0 5 1077 35 7711 3274 3.0 15 5 3 8 27% 22435 97043 23476 66%
c u  3.81 26 282 0 5 1077 35 7711 3087 3.0 15 5 3 8 27% 22438 97043 23476 66%
c v  3.84 26 282 0 5 1077 35 7711 3027 3.0 15 5 3 8 27% 22438 97043 23476 66%
c w  3.87 26 282 0 5 1077 35 7711 3023 3.0 15 5 3 8 27% 22438 97043 23476 66%
c x  3.91 26 282 0 5 1077 35 7711 3023 3.0 15 5 3 8 27% 22440 96296 23476 66%
c =  4.06 26 282 0 5 1077 35 7711 3023 3.0 15 5 3 8 27% 22836 96296 23278 65%
c d  4.08 26 282 0 5 1077 35 7711 3011 3.0 15 5 3 8 27% 22335 96296 23278 65%
c t  4.10 26 282 0 5 1077 35 7711 3011 3.0 15 5 3 8 27% 22325 96296 23278 65%
c f  4.16 26 282 0 5 1077 35 7711 3011 3.0 15 5 3 8 27% 22354 96188 23315 65%
c -  4.65 26 280 0 6 1265 35 9383 3985 3.1 15 5 3 7 27% 22407 96185 23315 65%
c o  4.84 26 283 0 6 1364 36 10002 4518 3.2 17 5 3 7 27% 22429 96183 23315 65%
c -  5.52 26 262 0 7 1644 36 11833 5477 3.3 18 5 3 7 27% 22479 96178 23315 65%
c s  5.73 26 266 0 7 1717 36 12520 6076 3.3 18 5 3 7 27% 22508 90469 23315 65%
c e  5.85 26 266 0 7 1717 36 12520 6076 3.3 18 5 3 7 27% 19733 92416 21695 61%
c 2  5.85 26 266 0 7 1717 36 12520 6076 3.3 18 5 3 7 27% 19727 92416 21695 61%
c s  5.87 26 266 0 7 1717 36 12520 6076 3.3 18 5 3 7 27% 19733 91738 21695 61%
c e  5.89 26 266 0 7 1717 36 12520 6076 3.3 18 5 3 7 27% 19703 91757 21678 61%
c ^  5.89 26 266 0 7 1717 36 12520 6076 3.3 18 5 3 7 27% 19703 91757 21678 61%
c
c  seconds   switched    rate        size/glue tier1    binary          remaining
c         MB  reductions   conflicts       size  tier2      irredundant
c           level  restarts     redundant    glue   trail          variables
c
c -  6.40 26 259 0 8 1945 36 14480 6098 3.3 18 5 2 7 27% 19769 91755 21678 61%
c d  6.67 26 273 0 8 2046 36 15794 7233 3.3 18 6 2 7 28% 19776 91752 21658 61%
c u  6.72 26 273 0 8 2046 36 15794 6171 3.3 18 6 2 7 28% 19791 91752 21658 61%
c v  6.78 26 273 0 8 2046 36 15794 5310 3.3 18 6 2 7 28% 19791 91752 21658 61%
c w  6.85 26 273 0 8 2046 36 15794 5306 3.3 18 6 2 7 28% 19791 91752 21658 61%
c x  6.90 26 273 0 8 2046 36 15794 5305 3.3 18 6 2 7 28% 19846 90472 21658 61%
c =  7.12 26 273 0 8 2046 36 15794 5305 3.3 18 6 2 7 28% 20378 90472 21392 60%
c d  7.14 26 273 0 8 2046 36 15794 5268 3.3 18 6 2 7 28% 19723 90472 21392 60%
c t  7.16 26 273 0 8 2046 36 15794 5268 3.3 18 6 2 7 28% 19690 90472 21392 60%
c f  7.25 26 273 0 8 2046 36 15794 5268 3.3 18 6 2 7 28% 19725 90315 21438 60%
c u  7.30 26 273 0 8 2046 36 15794 5038 3.3 18 6 2 7 28% 19733 90315 21438 60%
c v  7.35 26 273 0 8 2046 36 15794 4881 3.3 18 6 2 7 28% 19733 90315 21438 60%
c w  7.46 26 273 0 8 2046 36 15794 4858 3.3 18 6 2 7 28% 19733 90315 21438 60%
c x  7.50 26 273 0 8 2046 36 15794 4857 3.3 18 6 2 7 28% 19790 89250 21438 60%
c =  7.72 26 273 0 8 2046 36 15794 4857 3.3 18 6 2 7 28% 20690 89250 20988 59%
c d  7.73 26 273 0 8 2046 36 15794 4809 3.3 18 6 2 7 28% 19715 89250 20988 59%
c t  7.75 26 273 0 8 2046 36 15794 4809 3.3 18 6 2 7 28% 19659 89250 20988 59%
c f  7.78 26 273 0 8 2046 36 15794 4809 3.3 18 6 2 7 28% 19628 89116 21030 59%
c -  8.08 26 273 0 9 2160 35 17308 5308 3.3 18 6 2 7 27% 19679 89116 21030 59%
c o  8.85 26 265 0 9 2422 33 20015 7707 3.4 20 6 2 7 28% 19750 89115 21030 59%
c
c  seconds   switched     rate        size/glue tier1    binary          remaining
c         MB   reductions   conflicts       size  tier2      irredundant
c           level   restarts     redundant    glue   trail          variables
c
c -  9.00 26 264 0 10 2494 34 20309 7047 3.4 20 6 2 7 28% 19760 89115 21030 59%
c -  9.64 26 262 0 11 2718 32 23472 8655 3.3 20 6 2 7 27% 19856 89109 21030 59%
c s  9.84 26 257 0 11 2798 31 25025 9933 3.3 19 6 2 7 27% 19925 87610 21030 59%
c e  9.98 26 257 0 11 2798 31 25025 9933 3.3 19 6 2 7 27% 16563 92410 19131 54%
c 2  9.98 26 257 0 11 2798 31 25025 9933 3.3 19 6 2 7 27% 16532 92410 19131 54%
c s 10.01 26 257 0 11 2798 31 25025 9933 3.3 19 6 2 7 27% 16611 90924 19131 54%
c e 10.04 26 257 0 11 2798 31 25025 9933 3.3 19 6 2 7 27% 16380 91255 19000 53%
c ^ 10.04 26 257 0 11 2798 31 25025 9933 3.3 19 6 2 7 27% 16380 91255 19000 53%
c - 10.46 26 256 0 12 2924 30 26788 8529 3.2 19 6 2 7 27% 16423 91254 19000 53%
c c 10.57 26 255 0 12 2943 30 26925 8655 3.2 19 6 2 7 27% 16465 91120 18976 53%
c d 10.58 26 255 0 12 2943 30 26925 8638 3.2 19 6 2 7 27% 16412 91120 18973 53%
c u 10.63 26 255 0 12 2943 30 26925 7442 3.2 19 6 2 7 27% 16430 91120 18973 53%
c v 10.69 26 255 0 12 2943 30 26925 6638 3.2 19 6 2 7 27% 16431 91120 18973 53%
c w 10.70 26 255 0 12 2943 30 26925 6631 3.2 19 6 2 7 27% 16431 91120 18973 53%
c x 10.79 26 255 0 12 2943 30 26925 6623 3.2 19 6 2 7 27% 16496 89786 18973 53%
c = 11.03 26 255 0 12 2943 30 26925 6623 3.2 19 6 2 7 27% 17696 89782 18373 52%
c d 11.04 26 255 0 12 2943 30 26925 6550 3.2 19 6 2 7 27% 16444 89782 18370 52%
c t 11.06 26 255 0 12 2943 30 26925 6550 3.2 19 6 2 7 27% 16258 89782 18370 52%
c f 11.16 26 255 0 12 2943 30 26925 6550 3.2 19 6 2 7 27% 16364 89168 18478 52%
c u 11.22 26 255 0 12 2943 30 26925 6223 3.2 19 6 2 7 27% 16371 89168 18478 52%
c
c  seconds   switched     rate        size/glue tier1    binary          remaining
c         MB   reductions   conflicts       size  tier2      irredundant
c           level   restarts     redundant    glue   trail          variables
c
c v 11.26 26 255 0 12 2943 30 26925 6058 3.2 19 6 2 7 27% 16371 89168 18478 52%
c w 11.27 26 255 0 12 2943 30 26925 6057 3.2 19 6 2 7 27% 16371 89168 18478 52%
c x 11.37 26 255 0 12 2943 30 26925 6053 3.2 19 6 2 7 27% 16376 86974 18478 52%
c = 11.62 26 255 0 12 2943 30 26925 6053 3.2 19 6 2 7 27% 18124 86973 17604 49%
c d 11.63 26 255 0 12 2943 30 26925 5912 3.2 19 6 2 7 27% 16340 86973 17604 49%
c t 11.65 26 255 0 12 2943 30 26925 5912 3.2 19 6 2 7 27% 16166 86973 17604 49%
c f 11.71 26 255 0 12 2943 30 26925 5912 3.2 19 6 2 7 27% 16229 86488 17684 50%
c - 12.34 26 248 0 13 3189 29 30252 7806 3.1 18 6 2 7 27% 16289 86487 17684 50%
c - 12.97 26 238 0 14 3465 28 33857 9865 3.0 18 6 2 7 27% 16352 86485 17684 50%
c - 13.78 26 229 0 15 3782 28 37598 11642 3.0 18 6 2 6 27% 16430 86485 17684 50%
c o 14.31 26 226 0 15 3968 27 40259 13980 3.0 18 6 2 6 27% 16476 86484 17684 50%
c c 14.55 26 226 0 15 4037 27 41251 14875 3.0 18 6 2 6 27% 16513 86383 17660 50%
c d 14.56 26 226 0 15 4037 27 41251 14823 3.0 18 6 2 6 27% 16453 86383 17652 50%
c u 14.65 26 226 0 15 4037 27 41251 12709 3.0 18 6 2 6 27% 16462 86383 17652 50%
c v 14.73 26 226 0 15 4037 27 41251 11830 3.0 18 6 2 6 27% 16462 86383 17652 50%
c w 14.78 26 226 0 15 4037 27 41251 11823 3.0 18 6 2 6 27% 16462 86383 17652 50%
c x 14.86 26 226 0 15 4037 27 41251 11822 3.0 18 6 2 6 27% 16462 81433 17652 50%
c = 15.13 26 226 0 15 4037 27 41251 11822 3.0 18 6 2 6 27% 16936 81429 17415 49%
c d 15.14 26 226 0 15 4037 27 41251 11759 3.0 18 6 2 6 27% 16456 81429 17415 49%
c t 15.17 26 226 0 15 4037 27 41251 11759 3.0 18 6 2 6 27% 16375 81429 17415 49%
c
c  seconds   switched     rate         size/glue tier1    binary          remaining
c         MB   reductions   conflicts        size  tier2      irredundant
c           level   restarts      redundant    glue   trail          variables
c
c f 15.20 26 226 0 15 4037 27 41251 11759 3.0 18 6 2 6 27% 16403 81231 17452 49%
c c 15.28 26 226 0 15 4037 27 41251 11754 3.0 18 6 2 6 27% 16419 81183 17444 49%
c d 15.28 26 226 0 15 4037 27 41251 11754 3.0 18 6 2 6 27% 16403 81183 17444 49%
c u 15.33 26 226 0 15 4037 27 41251 11298 3.0 18 6 2 6 27% 16406 81183 17444 49%
c v 15.37 26 226 0 15 4037 27 41251 10382 3.0 18 6 2 6 27% 16408 81183 17444 49%
c w 15.41 26 226 0 15 4037 27 41251 10382 3.0 18 6 2 6 27% 16408 81183 17444 49%
c x 15.46 26 226 0 15 4037 27 41251 10382 3.0 18 6 2 6 27% 16409 79728 17444 49%
c = 15.62 26 226 0 15 4037 27 41251 10382 3.0 18 6 2 6 27% 16769 79728 17264 48%
c d 15.63 26 226 0 15 4037 27 41251 10276 3.0 18 6 2 6 27% 16398 79728 17264 48%
c t 15.64 26 226 0 15 4037 27 41251 10276 3.0 18 6 2 6 27% 16354 79728 17264 48%
c f 15.66 26 226 0 15 4037 27 41251 10276 3.0 18 6 2 6 27% 16380 79565 17287 49%
c - 15.71 26 225 0 16 4073 27 41470 9277 3.0 18 6 2 6 27% 16385 79565 17287 49%
c - 16.19 26 216 0 17 4413 27 45470 11356 2.9 17 6 2 6 27% 16448 79565 17287 49%
c - 16.76 26 214 0 18 4823 27 49593 13387 2.9 17 6 2 6 27% 16537 79563 17287 49%
c s 17.18 26 211 0 18 5080 26 52130 15710 3.0 18 6 2 6 27% 16571 77217 17287 49%
c e 17.26 26 211 0 18 5080 26 52130 15710 3.0 18 6 2 6 27% 14986 79990 16376 46%
c 2 17.26 26 211 0 18 5080 26 52130 15710 3.0 18 6 2 6 27% 14980 79990 16376 46%
c s 17.27 26 211 0 18 5080 26 52130 15710 3.0 18 6 2 6 27% 15081 79414 16376 46%
c e 17.28 26 211 0 18 5080 26 52130 15710 3.0 18 6 2 6 27% 15034 79479 16349 46%
c ^ 17.28 26 211 0 18 5080 26 52130 15710 3.0 18 6 2 6 27% 15034 79479 16349 46%
c
c  seconds   switched     rate         size/glue tier1    binary          remaining
c         MB   reductions   conflicts        size  tier2      irredundant
c           level   restarts      redundant    glue   trail          variables
c
c - 17.43 26 207 0 19 5194 26 53836 13967 2.9 17 6 2 6 27% 15067 79477 16349 46%
c - 18.03 26 199 0 20 5504 25 58197 15859 2.8 17 6 2 6 28% 15102 79476 16349 46%
c d 18.08 26 199 0 20 5515 25 58878 16453 2.8 17 6 2 6 28% 15105 79476 16347 46%
c u 18.14 26 199 0 20 5515 25 58878 14032 2.8 17 6 2 6 28% 15132 79476 16347 46%
c v 18.20 26 199 0 20 5515 25 58878 12559 2.8 17 6 2 6 28% 15138 79476 16347 46%
c w 18.21 26 199 0 20 5515 25 58878 12532 2.8 17 6 2 6 28% 15138 79476 16347 46%
c x 18.28 26 199 0 20 5515 25 58878 12531 2.8 17 6 2 6 28% 15179 78702 16347 46%
c = 18.53 26 199 0 20 5515 25 58878 12531 2.8 17 6 2 6 28% 16433 78702 15720 44%
c d 18.54 26 199 0 20 5515 25 58878 12118 2.8 17 6 2 6 28% 15133 78702 15720 44%
c t 18.57 26 199 0 20 5515 25 58878 12118 2.8 17 6 2 6 28% 14894 78702 15720 44%
c f 18.64 26 199 0 20 5515 25 58878 12118 2.8 17 6 2 6 28% 15027 78141 15793 44%
c c 18.71 26 199 0 20 5515 25 58878 12117 2.8 17 6 2 6 28% 15054 78074 15779 44%
c d 18.72 26 199 0 20 5515 25 58878 12117 2.8 17 6 2 6 28% 15026 78074 15779 44%
c u 18.79 26 199 0 20 5515 25 58878 11288 2.8 17 6 2 6 28% 15018 78074 15779 44%
c v 18.83 26 199 0 20 5515 25 58878 10699 2.8 17 6 2 6 28% 15019 78074 15779 44%
c w 18.84 26 199 0 20 5515 25 58878 10686 2.8 17 6 2 6 28% 15019 78074 15779 44%
c x 18.94 26 199 0 20 5515 25 58878 10682 2.8 17 6 2 6 28% 15115 73469 15779 44%
c = 19.10 26 199 0 20 5515 25 58878 10682 2.8 17 6 2 6 28% 15753 73469 15460 43%
c d 19.11 26 199 0 20 5515 25 58878 10657 2.8 17 6 2 6 28% 15110 73469 15460 43%
c t 19.12 26 199 0 20 5515 25 58878 10657 2.8 17 6 2 6 28% 15008 73469 15460 43%
c
c  seconds   switched     rate         size/glue tier1    binary          remaining
c         MB   reductions   conflicts        size  tier2      irredundant
c           level   restarts      redundant    glue   trail          variables
c
c f 19.14 26 199 0 20 5515 25 58878 10657 2.8 17 6 2 6 28% 15072 73200 15494 43%
c - 19.73 26 193 0 21 5873 24 62669 12602 2.7 17 6 2 6 29% 15098 73198 15494 43%
c - 20.39 26 186 0 22 6349 24 67252 14949 2.7 16 6 2 6 29% 15136 73197 15494 43%
c o 21.05 26 182 0 22 6594 23 70415 17799 2.7 16 6 2 6 29% 15180 73197 15494 43%
c - 21.45 26 181 0 23 6778 23 71943 16736 2.7 16 6 2 6 29% 15194 73197 15494 43%
c - 22.57 26 179 0 24 7349 24 76738 18310 2.6 16 6 2 6 29% 15252 73194 15494 43%
c d 23.26 26 177 0 24 7674 23 79940 20954 2.6 16 6 2 6 30% 15259 73194 15475 43%
c u 23.34 26 177 0 24 7674 23 79940 17940 2.6 16 6 2 6 30% 15292 73194 15475 43%
c v 23.41 26 177 0 24 7674 23 79940 15855 2.6 16 6 2 6 30% 15295 73194 15475 43%
c w 23.45 26 177 0 24 7674 23 79940 15851 2.6 16 6 2 6 30% 15295 73194 15475 43%
c x 23.52 28 177 0 24 7674 23 79940 15847 2.6 16 6 2 6 30% 15357 72107 15475 43%
c = 23.88 28 177 0 24 7674 23 79940 15847 2.6 16 6 2 6 30% 16796 71630 14690 41%
c } 23.88 28 177 0 24 7674 23 79940 15847 2.6 16 6 2 6 30% 16796 71630 15407 43%
c 0 23.88 28 177 0 24 7674 23 79940 15847 2.6 16 6 2 6 30% 16796 71630 15407 43%
c
c ---- [ result ] ------------------------------------------------------------
c
s UNSATISFIABLE
c
c ---- [ profiling ] ---------------------------------------------------------
c
c          15.89   66.53 %  search
c          15.89   66.53 %  focused
c           7.36   30.84 %  simplify
c           7.14   29.90 %  probe
c           2.66   11.14 %  sweep
c           2.38    9.98 %  vivify
c           0.75    3.13 %  factor
c           0.63    2.62 %  congruence
c           0.56    2.35 %  eliminate
c           0.53    2.23 %  preprocess
c           0.51    2.15 %  substitute
c           0.18    0.77 %  fastel
c           0.16    0.66 %  reduce
c           0.13    0.53 %  transitive
c           0.12    0.50 %  subsume
c           0.08    0.33 %  backbone
c           0.05    0.23 %  lucky
c           0.04    0.16 %  parse
c =============================================
c          23.88  100.00 %  total
c
c ---- [ statistics ] --------------------------------------------------------
c
c chronological:                         3653                5 %  conflicts
c conflicts:                            79940             3347.80 per second
c congruent:                             3593               10 %  variables
c decisions:                          1859153               23.26 per conflict
c eliminated:                           13720               39 %  variables
c factored:                              3091                9 %  variables
c fast_eliminated:                       9115               66 %  eliminated
c fast_strengthened:                      363               11 %  per strengthened
c fast_subsumed:                          100                1 %  per subsumed
c propagations:                      93442725          3913276    per second
c reductions:                              24             3331    interval
c reordered:                                4            19985    interval
c restarts:                              7674               10    interval
c strengthened:                          3162                0 %  checks
c substituted:                           9527               27 %  variables
c subsumed:                             12195                1 %  checks
c switched:                                 0                0    interval
c vivified:                             55989               15 %  checks
c
c ---- [ glue usage ] --------------------------------------------------------
c
c focused glue 2 used 35557 clauses 28.09% accumulated 66.11% tier1
c focused glue 3 used 17068 clauses 13.48% accumulated 79.60%
c focused glue 4 used  7706 clauses  6.09% accumulated 85.68%
c focused glue 5 used  4777 clauses  3.77% accumulated 89.46%
c focused glue 6 used  2915 clauses  2.30% accumulated 91.76% tier2
c
c ---- [ resources ] ---------------------------------------------------------
c
c maximum-resident-set-size:         31162368 bytes         30 MB
c process-time:                            24s              23.88 seconds
c
c ---- [ shutting down ] -----------------------------------------------------
c
c exit 20
